1	12	1	8	29	100	0	0	0	0	0	0
2000	1	0	0	0	0	0	0	0	0	0	0
250	1	0	212.23	0.14	1	0	0	0	0	0	0
250	1	0	212.23	0.14	1	0	0	0	0	0	0
250	1	0	212.23	0.14	1	0	0	0	0	0	0
250	1	0	212.23	0.14	1	0	0	0	0	0	0
250	1	0	212.23	0.14	1	0	0	0	0	0	0
250	1	0	212.23	0.14	1	0	0	0	0	0	0
250	1	0	212.23	0.14	1	0	0	0	0	0	0
250	1	0	212.23	0.14	1	0	0	0	0	0	0
250	1	0	212.23	0.14	1	0	0	0	0	0	0
250	1	0	212.23	0.14	1	0	0	0	0	0	0
250	1	0	212.23	0.14	1	0	0	0	0	0	0
250	1	0	212.23	0.14	1	0	0	0	0	0	0
50	150	0	0	0	0	960	0	0	99999	0	0
25	25	0	0	0	0	960	0	0	99999	0	0
50	25	0	0	0	0	960	0	0	99999	0	0
75	25	0	0	0	0	960	0	0	99999	0	0
25	50	0	0	0	0	960	0	0	99999	0	0
75	50	0	0	0	0	960	0	0	99999	0	0
25	75	0	0	0	0	960	0	0	99999	0	0
50	75	0	0	0	0	960	0	0	99999	0	0
75	75	0	0	0	0	960	0	0	99999	0	0
25	25	0	0	0	0	960	0	0	0	0	0
50	25	0	0	0	0	960	0	0	0	0	0
75	25	0	0	0	0	960	0	0	0	0	0
25	50	0	0	0	0	960	0	0	0	0	0
75	50	0	0	0	0	960	0	0	0	0	0
25	75	0	0	0	0	960	0	0	0	0	0
50	75	0	0	0	0	960	0	0	0	0	0
75	75	0	0	0	0	960	0	0	0	0	0
40      50      0       0       0       0       240     0       0       0       0       0
73      52      0       0       0       0       240     0       0       0       0       0
90      55      0       0       0       0       240     0       0       0       0       0
55      79      0       0       0       0       240     0       0       0       0       0
69      89      0       0       0       0       240     0       0       0       0       0
32      80      0       0       0       0       240     0       0       0       0       0
39      96      0       0       0       0       240     0       0       0       0       0
23      80      0       0       0       0       240     0       0       0       0       0
4	83	0	0	0	0	960	0	0	0	0	0
18	58	0	0	0	0	960	0	0	0	0	0
1	56	0	0	0	0	960	0	0	0	0	0
13	31	0	0	0	0	960	0	0	0	0	0
-5	38	0	0	0	0	960	0	0	0	0	0
26	37	0	0	0	0	960	0	0	0	0	0
28	13	0	0	0	0	960	0	0	0	0	0
39	31	0	0	0	0	960	0	0	0	0	0
48	11	0	0	0	0	960	0	0	0	0	0
59	17	0	0	0	0	960	0	0	0	0	0
73	23	0	0	0	0	960	0	0	0	0	0
74	32	0	0	0	0	960	0	0	0	0	0
90	44	0	0	0	0	960	0	0	0	0	0
25	85	20	6	14	355	567	10	0	0	0	0
22	75	30	9	21	132	595	10	0	0	0	0
22	85	10	3	7	149	849	10	0	0	0	0
20	80	40	10	30	782	964	10	0	0	0	0
20	85	20	5	15	496	1010	10	0	0	0	0
18	75	20	5	15	178	660	10	0	0	0	0
15	75	20	4	16	196	384	10	0	0	0	0
15	80	10	2	8	417	785	10	0	0	0	0
10	35	20	6	14	576	1017	10	0	0	0	0
10	40	30	8	22	418	716	10	0	0	0	0
8	40	40	8	32	385	739	10	0	0	0	0
8	45	20	4	16	812	1018	10	0	0	0	0
5	35	10	1	9	140	494	10	0	0	0	0
5	45	10	1	9	162	556	10	0	0	0	0
2	40	20	1	19	749	1011	10	0	0	0	0
0	40	20	0	20	143	565	10	0	0	0	0
0	45	20	0	20	194	480	10	0	0	0	0
44	5	20	2	18	691	1005	10	0	0	0	0
42	10	40	10	30	142	533	10	0	0	0	0
42	15	10	4	6	254	484	10	0	0	0	0
40	5	10	1	9	456	910	10	0	0	0	0
40	15	40	15	25	604	960	10	0	0	0	0
38	5	30	4	26	147	735	10	0	0	0	0
38	15	10	4	6	165	479	10	0	0	0	0
35	5	20	3	17	147	471	10	0	0	0	0
95	30	30	9	21	644	992	10	0	0	0	0
95	35	20	7	13	410	993	10	0	0	0	0
92	30	10	3	7	157	579	10	0	0	0	0
90	35	10	4	6	502	822	10	0	0	0	0
88	30	10	3	7	425	729	10	0	0	0	0
88	35	20	8	12	252	1000	10	0	0	0	0
87	30	10	3	7	153	504	10	0	0	0	0
85	25	10	3	7	490	999	10	0	0	0	0
85	35	30	12	18	149	536	10	0	0	0	0
67	85	20	16	4	462	1006	10	0	0	0	0
65	85	40	31	9	493	863	10	0	0	0	0
65	82	10	8	2	142	728	10	0	0	0	0
62	80	30	23	7	139	596	10	0	0	0	0
60	80	10	8	2	516	1014	10	0	0	0	0
60	85	30	21	9	544	802	10	0	0	0	0
58	75	20	15	5	223	613	10	0	0	0	0
55	80	10	7	3	581	781	10	0	0	0	0
55	85	20	13	7	140	721	10	0	0	0	0
55	82	10	7	3	405	817	10	0	0	0	0
20	82	10	2	8	419	1013	10	0	0	0	0
18	80	10	2	8	599	1013	10	0	0	0	0
2	45	10	0	10	196	644	10	0	0	0	0
42	5	10	1	9	147	575	10	0	0	0	0
42	12	10	3	7	188	550	10	0	0	0	0
72	35	30	15	15	774	1015	10	0	0	0	0
55	20	19	7	12	447	839	10	0	0	0	0
25	30	3	3	0	461	967	10	0	0	0	0
20	50	5	2	3	237	619	10	0	0	0	0
55	60	16	15	1	540	896	10	0	0	0	0
30	60	16	8	8	480	1036	10	0	0	0	0
50	35	19	13	6	120	600	10	0	0	0	0
30	25	23	19	4	218	556	10	0	0	0	0
15	10	20	13	7	435	773	10	0	0	0	0
10	20	19	10	9	637	995	10	0	0	0	0
15	60	17	4	13	128	530	10	0	0	0	0
45	65	9	6	3	276	1035	10	0	0	0	0
65	35	3	2	1	131	497	10	0	0	0	0
65	20	6	2	4	212	742	10	0	0	0	0
45	30	17	11	6	648	930	10	0	0	0	0
35	40	16	14	2	113	393	10	0	0	0	0
41	37	16	14	2	510	980	10	0	0	0	0
64	42	9	6	3	127	516	10	0	0	0	0
40	60	21	14	7	580	1041	10	0	0	0	0
31	52	27	16	11	111	480	10	0	0	0	0
35	69	23	12	11	427	691	10	0	0	0	0
65	55	14	12	2	808	1025	10	0	0	0	0
63	65	8	8	0	262	722	10	0	0	0	0
2	60	5	0	5	349	553	10	0	0	0	0
20	20	8	8	0	762	1014	10	0	0	0	0
5	5	16	16	0	412	678	10	0	0	0	0
60	12	31	6	25	144	530	10	0	0	0	0
23	3	7	1	6	151	572	10	0	0	0	0
8	56	27	4	23	219	807	10	0	0	0	0
6	68	30	3	27	140	503	10	0	0	0	0
47	47	13	13	0	251	769	10	0	0	0	0
49	58	10	8	2	728	1038	10	0	0	0	0
27	43	9	6	3	524	816	10	0	0	0	0
37	31	14	12	2	395	793	10	0	0	0	0
57	29	18	9	9	613	1023	10	0	0	0	0
63	23	2	1	1	137	777	10	0	0	0	0
21	24	28	25	3	459	609	10	0	0	0	0
12	24	13	7	6	528	556	10	0	0	0	0
24	58	19	8	11	496	948	10	0	0	0	0
67	5	25	2	23	538	998	10	0	0	0	0
37	47	6	5	1	106	391	10	0	0	0	0
49	42	13	11	2	355	845	10	0	0	0	0
53	43	14	11	3	462	1036	10	0	0	0	0
61	52	3	3	0	386	570	10	0	0	0	0
57	48	23	19	4	725	1033	10	0	0	0	0
56	37	6	4	2	428	952	10	0	0	0	0
55	54	26	26	0	355	521	10	0	0	0	0
4	18	35	8	27	848	1002	10	0	0	0	0
26	52	9	5	4	211	547	10	0	0	0	0
26	35	15	11	4	122	360	10	0	0	0	0
31	67	3	1	2	629	629	10	0	0	0	0
